p cnf 75 556

c ossz oszlop
1 6 11 16 21 0
-1 -6  0
-1 -11  0
-1 -16  0
-1 -21  0
-6 -11  0
-6 -16  0
-6 -21  0
-11 -16  0
-11 -21  0
-16 -21  0
2 7 12 17 22 0
-2 -7  0
-2 -12  0
-2 -17  0
-2 -22  0
-7 -12  0
-7 -17  0
-7 -22  0
-12 -17  0
-12 -22  0
-17 -22  0
3 8 13 18 23 0
-3 -8  0
-3 -13  0
-3 -18  0
-3 -23  0
-8 -13  0
-8 -18  0
-8 -23  0
-13 -18  0
-13 -23  0
-18 -23  0
4 9 14 19 24 0
-4 -9  0
-4 -14  0
-4 -19  0
-4 -24  0
-9 -14  0
-9 -19  0
-9 -24  0
-14 -19  0
-14 -24  0
-19 -24  0
5 10 15 20 25 0
-5 -10  0
-5 -15  0
-5 -20  0
-5 -25  0
-10 -15  0
-10 -20  0
-10 -25  0
-15 -20  0
-15 -25  0
-20 -25  0
26 31 36 41 46 0
-26 -31  0
-26 -36  0
-26 -41  0
-26 -46  0
-31 -36  0
-31 -41  0
-31 -46  0
-36 -41  0
-36 -46  0
-41 -46  0
27 32 37 42 47 0
-27 -32  0
-27 -37  0
-27 -42  0
-27 -47  0
-32 -37  0
-32 -42  0
-32 -47  0
-37 -42  0
-37 -47  0
-42 -47  0
28 33 38 43 48 0
-28 -33  0
-28 -38  0
-28 -43  0
-28 -48  0
-33 -38  0
-33 -43  0
-33 -48  0
-38 -43  0
-38 -48  0
-43 -48  0
29 34 39 44 49 0
-29 -34  0
-29 -39  0
-29 -44  0
-29 -49  0
-34 -39  0
-34 -44  0
-34 -49  0
-39 -44  0
-39 -49  0
-44 -49  0
30 35 40 45 50 0
-30 -35  0
-30 -40  0
-30 -45  0
-30 -50  0
-35 -40  0
-35 -45  0
-35 -50  0
-40 -45  0
-40 -50  0
-45 -50  0
51 56 61 66 71 0
-51 -56  0
-51 -61  0
-51 -66  0
-51 -71  0
-56 -61  0
-56 -66  0
-56 -71  0
-61 -66  0
-61 -71  0
-66 -71  0
52 57 62 67 72 0
-52 -57  0
-52 -62  0
-52 -67  0
-52 -72  0
-57 -62  0
-57 -67  0
-57 -72  0
-62 -67  0
-62 -72  0
-67 -72  0
53 58 63 68 73 0
-53 -58  0
-53 -63  0
-53 -68  0
-53 -73  0
-58 -63  0
-58 -68  0
-58 -73  0
-63 -68  0
-63 -73  0
-68 -73  0
54 59 64 69 74 0
-54 -59  0
-54 -64  0
-54 -69  0
-54 -74  0
-59 -64  0
-59 -69  0
-59 -74  0
-64 -69  0
-64 -74  0
-69 -74  0
55 60 65 70 75 0
-55 -60  0
-55 -65  0
-55 -70  0
-55 -75  0
-60 -65  0
-60 -70  0
-60 -75  0
-65 -70  0
-65 -75  0
-70 -75  0

c ossz sor
1 2 3 4 5 0
-1 -2  0
-1 -3  0
-1 -4  0
-1 -5  0
-2 -3  0
-2 -4  0
-2 -5  0
-3 -4  0
-3 -5  0
-4 -5  0
6 7 8 9 10 0
-6 -7  0
-6 -8  0
-6 -9  0
-6 -10  0
-7 -8  0
-7 -9  0
-7 -10  0
-8 -9  0
-8 -10  0
-9 -10  0
11 12 13 14 15 0
-11 -12  0
-11 -13  0
-11 -14  0
-11 -15  0
-12 -13  0
-12 -14  0
-12 -15  0
-13 -14  0
-13 -15  0
-14 -15  0
16 17 18 19 20 0
-16 -17  0
-16 -18  0
-16 -19  0
-16 -20  0
-17 -18  0
-17 -19  0
-17 -20  0
-18 -19  0
-18 -20  0
-19 -20  0
21 22 23 24 25 0
-21 -22  0
-21 -23  0
-21 -24  0
-21 -25  0
-22 -23  0
-22 -24  0
-22 -25  0
-23 -24  0
-23 -25  0
-24 -25  0
26 27 28 29 30 0
-26 -27  0
-26 -28  0
-26 -29  0
-26 -30  0
-27 -28  0
-27 -29  0
-27 -30  0
-28 -29  0
-28 -30  0
-29 -30  0
31 32 33 34 35 0
-31 -32  0
-31 -33  0
-31 -34  0
-31 -35  0
-32 -33  0
-32 -34  0
-32 -35  0
-33 -34  0
-33 -35  0
-34 -35  0
36 37 38 39 40 0
-36 -37  0
-36 -38  0
-36 -39  0
-36 -40  0
-37 -38  0
-37 -39  0
-37 -40  0
-38 -39  0
-38 -40  0
-39 -40  0
41 42 43 44 45 0
-41 -42  0
-41 -43  0
-41 -44  0
-41 -45  0
-42 -43  0
-42 -44  0
-42 -45  0
-43 -44  0
-43 -45  0
-44 -45  0
46 47 48 49 50 0
-46 -47  0
-46 -48  0
-46 -49  0
-46 -50  0
-47 -48  0
-47 -49  0
-47 -50  0
-48 -49  0
-48 -50  0
-49 -50  0
51 52 53 54 55 0
-51 -52  0
-51 -53  0
-51 -54  0
-51 -55  0
-52 -53  0
-52 -54  0
-52 -55  0
-53 -54  0
-53 -55  0
-54 -55  0
56 57 58 59 60 0
-56 -57  0
-56 -58  0
-56 -59  0
-56 -60  0
-57 -58  0
-57 -59  0
-57 -60  0
-58 -59  0
-58 -60  0
-59 -60  0
61 62 63 64 65 0
-61 -62  0
-61 -63  0
-61 -64  0
-61 -65  0
-62 -63  0
-62 -64  0
-62 -65  0
-63 -64  0
-63 -65  0
-64 -65  0
66 67 68 69 70 0
-66 -67  0
-66 -68  0
-66 -69  0
-66 -70  0
-67 -68  0
-67 -69  0
-67 -70  0
-68 -69  0
-68 -70  0
-69 -70  0
71 72 73 74 75 0
-71 -72  0
-71 -73  0
-71 -74  0
-71 -75  0
-72 -73  0
-72 -74  0
-72 -75  0
-73 -74  0
-73 -75  0
-74 -75  0

c allitas #1
c Hetfon boltokba kerult konyvet nem no dolgozta at
-1 -26 0
-1 -31 0
-1 -36 0
-1 -41 0
-1 -46 0
-21 -26 0
-21 -31 0
-21 -36 0
-21 -41 0
-21 -46 0

c A csengo konyvet nem no dolgozta at
c -1 -26 0 mar szerepelt igy nem kerul be megegyszer
-1 -27 0
-1 -28 0
-1 -29 0
-1 -30 0
-21 -27 0
-21 -28 0
-21 -29 0
-21 -30 0

c A csengo konyv nem hetfon jelent meg
-26 0

c allitas #2
c Vegig kell venni az osszes napot, mikor Abafi dolgozhatott (1–5),
c es minden hetfoi konyvre (26, 31, 36, 41, 46)
c es minden arparra, ahol Abafi ara <= hetfoi konyve

-1 -51 56 0
-1 -51 61 0
-1 -51 66 0
-1 -51 71 0
-1 -51 0

-1 -56 61 0
-1 -56 66 0
-1 -56 71 0
-1 -56 0

-1 -61 66 0
-1 -61 71 0
-1 -61 0

-1 -66 71 0
-1 -66 0

c A Csengo konyv olcsobb legyen Abafi konyvenel

-1 -51 56 0
-1 -51 61 0
-1 -51 66 0
-1 -51 71 0
-1 -51 0

-1 -56 61 0
-1 -56 66 0
-1 -56 71 0
-1 -56 0

-1 -61 66 0
-1 -61 71 0
-1 -61 0

-1 -66 71 0
-1 -66 0

c allitas #3
c A Túl Mindenen dragabb, mint Dalos Rezso szerkesztese

c Hetfo
-6 -41 -66 51 0
-6 -41 -66 56 0
-6 -41 -66 61 0
-6 -41 -66 66 0   ; ugyanaz nem lehet, csak nagyobb
-6 -41 -66 71 0   ; 2350 lehet

c Kedd
-7 -42 -67 52 0
-7 -42 -67 57 0
-7 -42 -67 62 0
-7 -42 -67 67 0
-7 -42 -67 72 0

c Szerda
-8 -43 -68 53 0
-8 -43 -68 58 0
-8 -43 -68 63 0
-8 -43 -68 68 0
-8 -43 -68 73 0

c Csutortok
-9 -44 -69 54 0
-9 -44 -69 59 0
-9 -44 -69 64 0
-9 -44 -69 69 0
-9 -44 -69 74 0

c Pentek
-10 -45 -70 55 0
-10 -45 -70 60 0
-10 -45 -70 65 0
-10 -45 -70 70 0
-10 -45 -70 75 0

c allitas #4
c marvanyfejeket csutortok ota lehet kapni --> azaz akkor jelent meg
39 0

c allitas #5
c sok allitast fogalmaz meg
c 1 - az 1700 forintos konyv oneletrajz
c 2 - ezt palos kata szerkesztette
c 3 - ez korabban jelent meg mint a marvanyfejek

c A csengo 1700 ft
-26 56 0
-27 57 0
-28 58 0
-29 59 0
-30 60 0

c Palos Kata szerkesztette a csengo c. konyvet
-21 26 0
-22 27 0
-23 28 0
-24 29 0
-25 30 0

c A csengo hamarabb jelent meg, mint a marvanyfejek
-26 -36 0
-27 -36 0
-27 -37 0
-28 -36 0
-28 -37 0
-28 -38 0
-29 -36 0
-29 -37 0
-29 -38 0
-29 -39 0
-30 -36 0
-30 -37 0
-30 -38 0
-30 -39 0
-30 -40 0

c allitas #6
c Ha a csengo jelent meg szerdan, akkor 1500 Ft volt
-28 53 0
c Ha a dobos torta jelent meg szerdan, akkor 1500 Ft volt
-33 53 0
c Ha a maranyfejek jelent meg szerdan, akkor 1500 Ft volt
-38 53 0
c Ha a tul mindenen jelent meg szerdan, akkor 1500 Ft volt
-43 53 0
c Ha a zene-bona jelent meg szerdan, akkor 1500 Ft volt
-48 53 0
c Ha egy konyv 1500 Ft, akkor az szerdan jelent meg
-51 28 33 38 43 48 0
-52 28 33 38 43 48 0
-53 28 33 38 43 48 0
-54 28 33 38 43 48 0
-55 28 33 38 43 48 0

c allitas #7
c a dobos torta ara 2350ft
-31 -71 0
-32 -72 0
-33 -73 0
-34 -74 0
-35 -75 0
31 32 33 34 35 0
71 72 73 74 75 0

c allitas #8
c Gemes Imre a Zene-bona atiratat keszitette el
-11 -46 0
-12 -47 0
-13 -48 0
-14 -49 0
-15 -50 0
11 12 13 14 15 0
46 47 48 49 50 0